% demand
num_movements = 19;
loading_factor = [1600, 900, 1000, 1750, 1750, 1150, 800, 1950, 1900, 950, 1700, 1200, 1900, 1000, 1300, 900, 800, 1500, 1050];
pickup_time = [0, 0, 0, 1, 1, 2, 3, 4, 4, 4, 4, 6, 6, 6, 6, 6, 9, 9, 9];
delivery_time = [3, 3, 4, 4, 2, 3, 4, 6, 6, 6, 6, 8, 8, 10, 9, 10, 10, 10, 10];

% transporter definition
total_capacity = 7000;
num_decks = 3;
capacity = [3000, 1000, 3000];

% ways out of decks
num_ways_out = 1;
paths_out = array3d(decks, ways_out, decks, [
% ways out of deck d1
2, 3, 0, 

% ways out of deck d2
3, 0, 0, 

% ways out of deck d3
0, 0, 0,	

]);

